###### Lammps Input File			Summer 2018
###### AKA Group
####################################################################################

###### Variables Needed for Run

variable			Temp			equal	1

# Size variables *** Accual size will be multiplied by 2 due to axial symmetry ***
variable			SizeX			equal	8
variable			SizeY			equal	8
variable			SizeZ			equal	1
variable			HalfSizeX		equal	0.5*${SizeX}
variable			TopSelect		equal	${SizeY}-1
variable			CrackWidth		equal	0.5
variable			CellSize		equal	5.4307*2
variable			Mass			equal	28.0855*8
#variable			AtomVolume		equal	(${CellSize}^3)/8
variable			AtomVolume		equal	vol/atoms

# Run variables
variable			TimeStep		equal	0.001
variable			StrainRate		equal	0.5e-3
variable			FinalStrain		equal	0.25
variable			RunValue		equal	${FinalStrain}/(${StrainRate}*${TimeStep})
variable			MoveSpeed		equal	${SizeY}*${StrainRate}		#In Lattice Unit
variable			ThermoValue		equal	1000
variable			DumpValue		equal	1000

# Minimize variables
variable			etol			equal	1e-20
variable			ftol			equal	1e-20
variable			maxiter			equal	1e+5
variable			maxeval			equal	1e+5


##################################### Main Code #####################################

###### Initializations
units				metal
dimension			3
boundary			s s s
atom_style			atomic

###### Create Atoms
box					tilt large
lattice				diamond ${CellSize}
region				MainRegion prism -${SizeX} +${SizeX} -${SizeY} +${SizeY} -${SizeZ} +${SizeZ} 0.0 0.0 0.0 units lattice
region				DeleteRegion prism ${HalfSizeX} +${SizeX} -${CrackWidth} +${CrackWidth} -${SizeZ} +${SizeZ} 0.0 0.0 0.0 units lattice
region				TopRegion block -${SizeX} ${SizeX} ${TopSelect} ${SizeY} -${SizeZ} ${SizeZ} units lattice 
region				BotRegion block -${SizeX} ${SizeX} -${SizeY} -${TopSelect} -${SizeZ} ${SizeZ} units lattice
create_box			1 MainRegion
create_atoms		1 box
delete_atoms		region DeleteRegion
group				TopGroup region TopRegion
group				BotGroup region BotRegion

###### Potential
mass				1 ${Mass}
pair_style			sw
pair_coeff			* * Si8.sw Si

###### Minimization
min_style			quickmin
minimize			${etol} ${ftol} ${maxiter} ${maxeval}

###### Initil Velocity
velocity			all create ${Temp} 123456 rot yes mom yes dist gaussian

###### Fixes
fix					NVTFix all nvt temp ${Temp} ${Temp} 0.01
fix					TopMovingAtoms   TopGroup move linear 0 ${MoveSpeed}  0 units lattice
fix					DownMovingAtoms  BotGroup move linear 0 -${MoveSpeed} 0 units lattice

###### Computes
variable			CurrentStrain	equal	step*${StrainRate}*${TimeStep}

# Force on Top Layer
compute				TopForce TopGroup reduce sum fy
variable			TopForce		equal	c_TopForce

# Stress vectors
compute				SPA all stress/atom NULL
variable			SPAV1			atom	c_SPA[1]/(${AtomVolume}*10000)
variable			SPAV2			atom	c_SPA[2]/(${AtomVolume}*10000)
variable			SPAV3			atom	c_SPA[3]/(${AtomVolume}*10000)

# System pressure
compute				PRS all pressure thermo_temp
variable			PRSxx			equal	c_PRS[1]/10000
variable			PRSyy			equal	c_PRS[2]/10000
variable			PRSzz			equal	c_PRS[3]/10000

###### Dump and Thermo and Run
fix					FixPrint all print ${ThermoValue} "${CurrentStrain} ${TopForce} ${PRSxx} ${PRSyy} ${PRSzz}" file Stress.dat screen yes title "Strain TopForce Pxx Pyy Pzz   :::   System Stress(Pressure) GPa"

dump				DumpFile all custom ${DumpValue} dump.Lammps x y z v_SPAV1 v_SPAV2 v_SPAV3

run					${RunValue}